sat
(:max-memory                   18.43
 :memory                       18.43
 :nlsat-arith-var              2
 :nlsat-atoms                  3
 :nlsat-bool-var               1
 :nlsat-clauses                3
 :nlsat-irrational-assignments 2
 :nlsat-propagations           3
 :nlsat-stages                 3
 :num-allocs                   41393
 :rlimit-count                 269
 :time                         0.00
 :total-time                   0.01)
